data;
set K:= K1 K2 K3 K4 K5 K6 K7 K8 K9 K10 ;

set F:= F1 F2 F3 ;

set Q:= Q1 Q2 ;

param T:= 45;
param V: 
	K1  K2  K3  K4  K5  K6  K7  K8  K9  K10 :=
Q1	1   1   1   1   1   1   0   0   0   0   
Q2	0   0   0   0   0   0   1   1   1   1   
; # if resorce k is of type q

param TF:= 
K1 6
K2 6
K3 6
K4 6
K5 6
K6 6
K7 12
K8 12
K9 12
K10 12
; # number of continuous time slots resource can fly

param TR:= 
K1 2
K2 2
K3 2
K4 2
K5 2
K6 2
K7 4
K8 4
K9 4
K10 4
; #  number of continuous time slots resource k needs to rest between flights

param P:= 
K1 36
K2 36
K3 36
K4 36
K5 36
K6 36
K7 36
K8 36
K9 36
K10 36
; #  number of continuous time slots a pilot can be present including rest times for resource k 

param N:= 
K1 4
K2 4
K3 4
K4 4
K5 4
K6 4
K7 2
K8 2
K9 2
K10 2
; # max number of flights resource k can fly in the total time period

param A: 
	K1  K2  K3  K4  K5  K6  K7  K8  K9  K10 :=
1	1   1   1   1   1   1   1   1   1   1   
2	1   1   1   1   1   1   1   1   1   1   
3	1   1   1   1   1   1   1   1   1   1   
4	1   1   1   1   1   1   1   1   1   1   
5	1   1   1   1   1   1   1   1   1   1   
6	1   1   1   1   1   1   1   1   1   1   
7	1   1   1   1   1   1   1   1   1   1   
8	1   1   1   1   1   1   1   1   1   1   
9	1   1   1   1   1   1   1   1   1   1   
10	1   1   1   1   1   1   1   1   1   1   
11	1   1   1   1   1   1   1   1   1   1   
12	1   1   1   1   1   1   1   1   1   1   
13	1   1   1   1   1   1   1   1   1   1   
14	1   1   1   1   1   1   1   1   1   1   
15	1   1   1   1   1   1   1   1   1   1   
16	1   1   1   1   1   1   1   1   1   1   
17	1   1   1   1   1   1   1   1   1   1   
18	1   1   1   1   1   1   1   1   1   1   
19	1   1   1   1   1   1   1   1   1   1   
20	1   1   1   1   1   1   1   1   1   1   
21	1   1   1   1   1   1   1   1   1   1   
22	1   1   1   1   1   1   1   1   1   1   
23	1   1   1   1   1   1   1   1   1   1   
24	1   1   1   1   1   1   1   1   1   1   
25	1   1   1   1   1   1   1   1   1   1   
26	1   1   1   1   1   1   1   1   1   1   
27	1   1   1   1   1   1   1   1   1   1   
28	1   1   1   1   1   1   1   1   1   1   
29	1   1   1   1   1   1   1   1   1   1   
30	1   1   1   1   1   1   1   1   1   1   
31	1   1   1   1   1   1   1   1   1   1   
32	1   1   1   1   1   1   1   1   1   1   
33	1   1   1   1   1   1   1   1   1   1   
34	1   1   1   1   1   1   1   1   1   1   
35	1   1   1   1   1   1   1   1   1   1   
36	1   1   1   1   1   1   1   1   1   1   
37	1   1   1   1   1   1   1   1   1   1   
38	1   1   1   1   1   1   1   1   1   1   
39	1   1   1   1   1   1   1   1   1   1   
40	1   1   1   1   1   1   1   1   1   1   
41	1   1   1   1   1   1   1   1   1   1   
42	1   1   1   1   1   1   1   1   1   1   
43	1   1   1   1   1   1   1   1   1   1   
44	1   1   1   1   1   1   1   1   1   1   
45	1   1   1   1   1   1   1   1   1   1   
; # availability of resorce k in time slot t

param B: 
	F1  F2  F3  :=
Q1	0   0   0   
Q2	0   0   0   
; # if front f requires resources of type q

param U: 
	F1  F2  F3  :=
K1	0   0   0   
K2	0   0   0   
K3	0   0   0   
K4	0   0   0   
K5	0   0   0   
K6	0   0   0   
K7	2   2   2   
K8	2   2   2   
K9	0   0   0   
K10	2   2   2   
; # transit time of resource

param C:= 
K1 900
K2 900
K3 900
K4 1500
K5 4500
K6 2100
K7 5500
K8 5500
K9 5500
K10 5500
; #  water capacity of resource k

param S:= 
F1 7
F2 8
F3 9
; # max number of resources that can fly at front f in the same time slot

param D:= 

[*,*,F1 ]:  K1    K2    K3    K4    K5    K6    K7    K8    K9    K10   :=
1           1.80  1.80  1.80  1.80  1.44  1.80  1.08  1.08  1.08  1.08  
2           1.80  1.80  1.80  1.80  1.44  1.80  1.08  1.08  1.08  1.08  
3           1.80  1.80  1.80  1.80  1.44  1.80  1.08  1.08  1.08  1.08  
4           1.80  1.80  1.80  1.80  1.44  1.80  1.08  1.08  1.08  1.08  
5           1.80  1.80  1.80  1.80  1.44  1.80  1.08  1.08  1.08  1.08  
6           1.80  1.80  1.80  1.80  1.44  1.80  1.08  1.08  1.08  1.08  
7           1.80  1.80  1.80  1.80  1.44  1.80  1.08  1.08  1.08  1.08  
8           1.80  1.80  1.80  1.80  1.44  1.80  1.08  1.08  1.08  1.08  
9           1.80  1.80  1.80  1.80  1.44  1.80  1.08  1.08  1.08  1.08  
10          1.80  1.80  1.80  1.80  1.44  1.80  1.08  1.08  1.08  1.08  
11          1.80  1.80  1.80  1.80  1.44  1.80  1.08  1.08  1.08  1.08  
12          1.80  1.80  1.80  1.80  1.44  1.80  1.08  1.08  1.08  1.08  
13          1.80  1.80  1.80  1.80  1.44  1.80  1.08  1.08  1.08  1.08  
14          1.80  1.80  1.80  1.80  1.44  1.80  1.08  1.08  1.08  1.08  
15          1.80  1.80  1.80  1.80  1.44  1.80  1.08  1.08  1.08  1.08  
16          1.80  1.80  1.80  1.80  1.44  1.80  1.08  1.08  1.08  1.08  
17          1.80  1.80  1.80  1.80  1.44  1.80  1.08  1.08  1.08  1.08  
18          1.80  1.80  1.80  1.80  1.44  1.80  1.08  1.08  1.08  1.08  
19          1.80  1.80  1.80  1.80  1.44  1.80  1.08  1.08  1.08  1.08  
20          1.80  1.80  1.80  1.80  1.44  1.80  1.08  1.08  1.08  1.08  
21          1.80  1.80  1.80  1.80  1.44  1.80  1.08  1.08  1.08  1.08  
22          1.80  1.80  1.80  1.80  1.44  1.80  1.08  1.08  1.08  1.08  
23          1.80  1.80  1.80  1.80  1.44  1.80  1.08  1.08  1.08  1.08  
24          1.80  1.80  1.80  1.80  1.44  1.80  1.08  1.08  1.08  1.08  
25          1.71  1.71  1.71  1.71  1.36  1.71  1.03  1.03  1.03  1.03  
26          1.71  1.71  1.71  1.71  1.36  1.71  1.03  1.03  1.03  1.03  
27          1.71  1.71  1.71  1.71  1.36  1.71  1.03  1.03  1.03  1.03  
28          1.71  1.71  1.71  1.71  1.36  1.71  1.03  1.03  1.03  1.03  
29          1.71  1.71  1.71  1.71  1.36  1.71  1.03  1.03  1.03  1.03  
30          1.71  1.71  1.71  1.71  1.36  1.71  1.03  1.03  1.03  1.03  
31          1.71  1.71  1.71  1.71  1.36  1.71  1.03  1.03  1.03  1.03  
32          1.71  1.71  1.71  1.71  1.36  1.71  1.03  1.03  1.03  1.03  
33          1.71  1.71  1.71  1.71  1.36  1.71  1.03  1.03  1.03  1.03  
34          1.80  1.80  1.80  1.80  1.44  1.80  1.08  1.08  1.08  1.08  
35          1.80  1.80  1.80  1.80  1.44  1.80  1.08  1.08  1.08  1.08  
36          1.80  1.80  1.80  1.80  1.44  1.80  1.08  1.08  1.08  1.08  
37          1.80  1.80  1.80  1.80  1.44  1.80  1.08  1.08  1.08  1.08  
38          1.80  1.80  1.80  1.80  1.44  1.80  1.08  1.08  1.08  1.08  
39          1.80  1.80  1.80  1.80  1.44  1.80  1.08  1.08  1.08  1.08  
40          1.80  1.80  1.80  1.80  1.44  1.80  1.08  1.08  1.08  1.08  
41          1.80  1.80  1.80  1.80  1.44  1.80  1.08  1.08  1.08  1.08  
42          1.80  1.80  1.80  1.80  1.44  1.80  1.08  1.08  1.08  1.08  
43          1.80  1.80  1.80  1.80  1.44  1.80  1.08  1.08  1.08  1.08  
44          1.80  1.80  1.80  1.80  1.44  1.80  1.08  1.08  1.08  1.08  
45          1.80  1.80  1.80  1.80  1.44  1.80  1.08  1.08  1.08  1.08  

[*,*,F2 ]:  K1    K2    K3    K4    K5    K6    K7    K8    K9    K10   :=
1           1.34  1.34  1.34  1.34  1.06  1.34  0.80  0.80  0.80  0.80  
2           1.34  1.34  1.34  1.34  1.06  1.34  0.80  0.80  0.80  0.80  
3           1.34  1.34  1.34  1.34  1.06  1.34  0.80  0.80  0.80  0.80  
4           1.34  1.34  1.34  1.34  1.06  1.34  0.80  0.80  0.80  0.80  
5           1.34  1.34  1.34  1.34  1.06  1.34  0.80  0.80  0.80  0.80  
6           1.34  1.34  1.34  1.34  1.06  1.34  0.80  0.80  0.80  0.80  
7           1.34  1.34  1.34  1.34  1.06  1.34  0.80  0.80  0.80  0.80  
8           1.34  1.34  1.34  1.34  1.06  1.34  0.80  0.80  0.80  0.80  
9           1.34  1.34  1.34  1.34  1.06  1.34  0.80  0.80  0.80  0.80  
10          1.34  1.34  1.34  1.34  1.06  1.34  0.80  0.80  0.80  0.80  
11          1.34  1.34  1.34  1.34  1.06  1.34  0.80  0.80  0.80  0.80  
12          1.34  1.34  1.34  1.34  1.06  1.34  0.80  0.80  0.80  0.80  
13          1.34  1.34  1.34  1.34  1.06  1.34  0.80  0.80  0.80  0.80  
14          1.34  1.34  1.34  1.34  1.06  1.34  0.80  0.80  0.80  0.80  
15          1.34  1.34  1.34  1.34  1.06  1.34  0.80  0.80  0.80  0.80  
16          1.34  1.34  1.34  1.34  1.06  1.34  0.80  0.80  0.80  0.80  
17          1.34  1.34  1.34  1.34  1.06  1.34  0.80  0.80  0.80  0.80  
18          1.34  1.34  1.34  1.34  1.06  1.34  0.80  0.80  0.80  0.80  
19          1.34  1.34  1.34  1.34  1.06  1.34  0.80  0.80  0.80  0.80  
20          1.34  1.34  1.34  1.34  1.06  1.34  0.80  0.80  0.80  0.80  
21          1.34  1.34  1.34  1.34  1.06  1.34  0.80  0.80  0.80  0.80  
22          1.34  1.34  1.34  1.34  1.06  1.34  0.80  0.80  0.80  0.80  
23          1.34  1.34  1.34  1.34  1.06  1.34  0.80  0.80  0.80  0.80  
24          1.34  1.34  1.34  1.34  1.06  1.34  0.80  0.80  0.80  0.80  
25          1.27  1.27  1.27  1.27  1.01  1.27  0.76  0.76  0.76  0.76  
26          1.27  1.27  1.27  1.27  1.01  1.27  0.76  0.76  0.76  0.76  
27          1.27  1.27  1.27  1.27  1.01  1.27  0.76  0.76  0.76  0.76  
28          1.27  1.27  1.27  1.27  1.01  1.27  0.76  0.76  0.76  0.76  
29          1.27  1.27  1.27  1.27  1.01  1.27  0.76  0.76  0.76  0.76  
30          1.27  1.27  1.27  1.27  1.01  1.27  0.76  0.76  0.76  0.76  
31          1.27  1.27  1.27  1.27  1.01  1.27  0.76  0.76  0.76  0.76  
32          1.27  1.27  1.27  1.27  1.01  1.27  0.76  0.76  0.76  0.76  
33          1.27  1.27  1.27  1.27  1.01  1.27  0.76  0.76  0.76  0.76  
34          1.34  1.34  1.34  1.34  1.06  1.34  0.80  0.80  0.80  0.80  
35          1.34  1.34  1.34  1.34  1.06  1.34  0.80  0.80  0.80  0.80  
36          1.34  1.34  1.34  1.34  1.06  1.34  0.80  0.80  0.80  0.80  
37          1.34  1.34  1.34  1.34  1.06  1.34  0.80  0.80  0.80  0.80  
38          1.34  1.34  1.34  1.34  1.06  1.34  0.80  0.80  0.80  0.80  
39          1.34  1.34  1.34  1.34  1.06  1.34  0.80  0.80  0.80  0.80  
40          1.34  1.34  1.34  1.34  1.06  1.34  0.80  0.80  0.80  0.80  
41          1.34  1.34  1.34  1.34  1.06  1.34  0.80  0.80  0.80  0.80  
42          1.34  1.34  1.34  1.34  1.06  1.34  0.80  0.80  0.80  0.80  
43          1.34  1.34  1.34  1.34  1.06  1.34  0.80  0.80  0.80  0.80  
44          1.34  1.34  1.34  1.34  1.06  1.34  0.80  0.80  0.80  0.80  
45          1.34  1.34  1.34  1.34  1.06  1.34  0.80  0.80  0.80  0.80  

[*,*,F3 ]:  K1    K2    K3    K4    K5    K6    K7    K8    K9    K10   :=
1           1.84  1.84  1.84  1.84  1.46  1.84  1.10  1.10  1.10  1.10  
2           1.84  1.84  1.84  1.84  1.46  1.84  1.10  1.10  1.10  1.10  
3           1.84  1.84  1.84  1.84  1.46  1.84  1.10  1.10  1.10  1.10  
4           1.84  1.84  1.84  1.84  1.46  1.84  1.10  1.10  1.10  1.10  
5           1.84  1.84  1.84  1.84  1.46  1.84  1.10  1.10  1.10  1.10  
6           1.84  1.84  1.84  1.84  1.46  1.84  1.10  1.10  1.10  1.10  
7           1.84  1.84  1.84  1.84  1.46  1.84  1.10  1.10  1.10  1.10  
8           1.84  1.84  1.84  1.84  1.46  1.84  1.10  1.10  1.10  1.10  
9           1.84  1.84  1.84  1.84  1.46  1.84  1.10  1.10  1.10  1.10  
10          1.84  1.84  1.84  1.84  1.46  1.84  1.10  1.10  1.10  1.10  
11          1.84  1.84  1.84  1.84  1.46  1.84  1.10  1.10  1.10  1.10  
12          1.84  1.84  1.84  1.84  1.46  1.84  1.10  1.10  1.10  1.10  
13          1.84  1.84  1.84  1.84  1.46  1.84  1.10  1.10  1.10  1.10  
14          1.84  1.84  1.84  1.84  1.46  1.84  1.10  1.10  1.10  1.10  
15          1.84  1.84  1.84  1.84  1.46  1.84  1.10  1.10  1.10  1.10  
16          1.84  1.84  1.84  1.84  1.46  1.84  1.10  1.10  1.10  1.10  
17          1.84  1.84  1.84  1.84  1.46  1.84  1.10  1.10  1.10  1.10  
18          1.84  1.84  1.84  1.84  1.46  1.84  1.10  1.10  1.10  1.10  
19          1.84  1.84  1.84  1.84  1.46  1.84  1.10  1.10  1.10  1.10  
20          1.84  1.84  1.84  1.84  1.46  1.84  1.10  1.10  1.10  1.10  
21          1.84  1.84  1.84  1.84  1.46  1.84  1.10  1.10  1.10  1.10  
22          1.84  1.84  1.84  1.84  1.46  1.84  1.10  1.10  1.10  1.10  
23          1.84  1.84  1.84  1.84  1.46  1.84  1.10  1.10  1.10  1.10  
24          1.84  1.84  1.84  1.84  1.46  1.84  1.10  1.10  1.10  1.10  
25          1.75  1.75  1.75  1.75  1.39  1.75  1.05  1.05  1.05  1.05  
26          1.75  1.75  1.75  1.75  1.39  1.75  1.05  1.05  1.05  1.05  
27          1.75  1.75  1.75  1.75  1.39  1.75  1.05  1.05  1.05  1.05  
28          1.75  1.75  1.75  1.75  1.39  1.75  1.05  1.05  1.05  1.05  
29          1.75  1.75  1.75  1.75  1.39  1.75  1.05  1.05  1.05  1.05  
30          1.75  1.75  1.75  1.75  1.39  1.75  1.05  1.05  1.05  1.05  
31          1.75  1.75  1.75  1.75  1.39  1.75  1.05  1.05  1.05  1.05  
32          1.75  1.75  1.75  1.75  1.39  1.75  1.05  1.05  1.05  1.05  
33          1.75  1.75  1.75  1.75  1.39  1.75  1.05  1.05  1.05  1.05  
34          1.84  1.84  1.84  1.84  1.46  1.84  1.10  1.10  1.10  1.10  
35          1.84  1.84  1.84  1.84  1.46  1.84  1.10  1.10  1.10  1.10  
36          1.84  1.84  1.84  1.84  1.46  1.84  1.10  1.10  1.10  1.10  
37          1.84  1.84  1.84  1.84  1.46  1.84  1.10  1.10  1.10  1.10  
38          1.84  1.84  1.84  1.84  1.46  1.84  1.10  1.10  1.10  1.10  
39          1.84  1.84  1.84  1.84  1.46  1.84  1.10  1.10  1.10  1.10  
40          1.84  1.84  1.84  1.84  1.46  1.84  1.10  1.10  1.10  1.10  
41          1.84  1.84  1.84  1.84  1.46  1.84  1.10  1.10  1.10  1.10  
42          1.84  1.84  1.84  1.84  1.46  1.84  1.10  1.10  1.10  1.10  
43          1.84  1.84  1.84  1.84  1.46  1.84  1.10  1.10  1.10  1.10  
44          1.84  1.84  1.84  1.84  1.46  1.84  1.10  1.10  1.10  1.10  
45          1.84  1.84  1.84  1.84  1.46  1.84  1.10  1.10  1.10  1.10  
; # downloads resource k can do at front f in time t if intermediate time slot

param E:= 

[*,*,F1 ]:  K1    K2    K3    K4    K5    K6    K7    K8    K9    K10   :=
1           0.14  0.97  0.49  0.88  0.37  0.78  0.16  0.08  0.26  0.10  
2           0.14  0.97  0.49  0.88  0.37  0.78  0.16  0.08  0.26  0.10  
3           0.14  0.97  0.49  0.88  0.37  0.78  0.16  0.08  0.26  0.10  
4           0.14  0.97  0.49  0.88  0.37  0.78  0.16  0.08  0.26  0.10  
5           0.14  0.97  0.49  0.88  0.37  0.78  0.16  0.08  0.26  0.10  
6           0.14  0.97  0.49  0.88  0.37  0.78  0.16  0.08  0.26  0.10  
7           0.14  0.97  0.49  0.88  0.37  0.78  0.16  0.08  0.26  0.10  
8           0.14  0.97  0.49  0.88  0.37  0.78  0.16  0.08  0.26  0.10  
9           0.14  0.97  0.49  0.88  0.37  0.78  0.16  0.08  0.26  0.10  
10          0.14  0.97  0.49  0.88  0.37  0.78  0.16  0.08  0.26  0.10  
11          0.14  0.97  0.49  0.88  0.37  0.78  0.16  0.08  0.26  0.10  
12          0.14  0.97  0.49  0.88  0.37  0.78  0.16  0.08  0.26  0.10  
13          0.14  0.97  0.49  0.88  0.37  0.78  0.16  0.08  0.26  0.10  
14          0.14  0.97  0.49  0.88  0.37  0.78  0.16  0.08  0.26  0.10  
15          0.14  0.97  0.49  0.88  0.37  0.78  0.16  0.08  0.26  0.10  
16          0.14  0.97  0.49  0.88  0.37  0.78  0.16  0.08  0.26  0.10  
17          0.14  0.97  0.49  0.88  0.37  0.78  0.16  0.08  0.26  0.10  
18          0.14  0.97  0.49  0.88  0.37  0.78  0.16  0.08  0.26  0.10  
19          0.14  0.97  0.49  0.88  0.37  0.78  0.16  0.08  0.26  0.10  
20          0.14  0.97  0.49  0.88  0.37  0.78  0.16  0.08  0.26  0.10  
21          0.14  0.97  0.49  0.88  0.37  0.78  0.16  0.08  0.26  0.10  
22          0.14  0.97  0.49  0.88  0.37  0.78  0.16  0.08  0.26  0.10  
23          0.14  0.97  0.49  0.88  0.37  0.78  0.16  0.08  0.26  0.10  
24          0.14  0.97  0.49  0.88  0.37  0.78  0.16  0.08  0.26  0.10  
25          0.14  0.93  0.46  0.84  0.35  0.74  0.15  0.07  0.25  0.09  
26          0.14  0.93  0.46  0.84  0.35  0.74  0.15  0.07  0.25  0.09  
27          0.14  0.93  0.46  0.84  0.35  0.74  0.15  0.07  0.25  0.09  
28          0.14  0.93  0.46  0.84  0.35  0.74  0.15  0.07  0.25  0.09  
29          0.14  0.93  0.46  0.84  0.35  0.74  0.15  0.07  0.25  0.09  
30          0.14  0.93  0.46  0.84  0.35  0.74  0.15  0.07  0.25  0.09  
31          0.14  0.93  0.46  0.84  0.35  0.74  0.15  0.07  0.25  0.09  
32          0.14  0.93  0.46  0.84  0.35  0.74  0.15  0.07  0.25  0.09  
33          0.14  0.93  0.46  0.84  0.35  0.74  0.15  0.07  0.25  0.09  
34          0.14  0.97  0.49  0.88  0.37  0.78  0.16  0.08  0.26  0.10  
35          0.14  0.97  0.49  0.88  0.37  0.78  0.16  0.08  0.26  0.10  
36          0.14  0.97  0.49  0.88  0.37  0.78  0.16  0.08  0.26  0.10  
37          0.14  0.97  0.49  0.88  0.37  0.78  0.16  0.08  0.26  0.10  
38          0.14  0.97  0.49  0.88  0.37  0.78  0.16  0.08  0.26  0.10  
39          0.14  0.97  0.49  0.88  0.37  0.78  0.16  0.08  0.26  0.10  
40          0.14  0.97  0.49  0.88  0.37  0.78  0.16  0.08  0.26  0.10  
41          0.14  0.97  0.49  0.88  0.37  0.78  0.16  0.08  0.26  0.10  
42          0.14  0.97  0.49  0.88  0.37  0.78  0.16  0.08  0.26  0.10  
43          0.14  0.97  0.49  0.88  0.37  0.78  0.16  0.08  0.26  0.10  
44          0.14  0.97  0.49  0.88  0.37  0.78  0.16  0.08  0.26  0.10  
45          0.14  0.97  0.49  0.88  0.37  0.78  0.16  0.08  0.26  0.10  

[*,*,F2 ]:  K1    K2    K3    K4    K5    K6    K7    K8    K9    K10   :=
1           0.08  0.63  0.41  0.53  0.28  0.49  0.20  0.11  0.22  0.01  
2           0.08  0.63  0.41  0.53  0.28  0.49  0.20  0.11  0.22  0.01  
3           0.08  0.63  0.41  0.53  0.28  0.49  0.20  0.11  0.22  0.01  
4           0.08  0.63  0.41  0.53  0.28  0.49  0.20  0.11  0.22  0.01  
5           0.08  0.63  0.41  0.53  0.28  0.49  0.20  0.11  0.22  0.01  
6           0.08  0.63  0.41  0.53  0.28  0.49  0.20  0.11  0.22  0.01  
7           0.08  0.63  0.41  0.53  0.28  0.49  0.20  0.11  0.22  0.01  
8           0.08  0.63  0.41  0.53  0.28  0.49  0.20  0.11  0.22  0.01  
9           0.08  0.63  0.41  0.53  0.28  0.49  0.20  0.11  0.22  0.01  
10          0.08  0.63  0.41  0.53  0.28  0.49  0.20  0.11  0.22  0.01  
11          0.08  0.63  0.41  0.53  0.28  0.49  0.20  0.11  0.22  0.01  
12          0.08  0.63  0.41  0.53  0.28  0.49  0.20  0.11  0.22  0.01  
13          0.08  0.63  0.41  0.53  0.28  0.49  0.20  0.11  0.22  0.01  
14          0.08  0.63  0.41  0.53  0.28  0.49  0.20  0.11  0.22  0.01  
15          0.08  0.63  0.41  0.53  0.28  0.49  0.20  0.11  0.22  0.01  
16          0.08  0.63  0.41  0.53  0.28  0.49  0.20  0.11  0.22  0.01  
17          0.08  0.63  0.41  0.53  0.28  0.49  0.20  0.11  0.22  0.01  
18          0.08  0.63  0.41  0.53  0.28  0.49  0.20  0.11  0.22  0.01  
19          0.08  0.63  0.41  0.53  0.28  0.49  0.20  0.11  0.22  0.01  
20          0.08  0.63  0.41  0.53  0.28  0.49  0.20  0.11  0.22  0.01  
21          0.08  0.63  0.41  0.53  0.28  0.49  0.20  0.11  0.22  0.01  
22          0.08  0.63  0.41  0.53  0.28  0.49  0.20  0.11  0.22  0.01  
23          0.08  0.63  0.41  0.53  0.28  0.49  0.20  0.11  0.22  0.01  
24          0.08  0.63  0.41  0.53  0.28  0.49  0.20  0.11  0.22  0.01  
25          0.08  0.60  0.39  0.51  0.26  0.47  0.19  0.11  0.21  0.01  
26          0.08  0.60  0.39  0.51  0.26  0.47  0.19  0.11  0.21  0.01  
27          0.08  0.60  0.39  0.51  0.26  0.47  0.19  0.11  0.21  0.01  
28          0.08  0.60  0.39  0.51  0.26  0.47  0.19  0.11  0.21  0.01  
29          0.08  0.60  0.39  0.51  0.26  0.47  0.19  0.11  0.21  0.01  
30          0.08  0.60  0.39  0.51  0.26  0.47  0.19  0.11  0.21  0.01  
31          0.08  0.60  0.39  0.51  0.26  0.47  0.19  0.11  0.21  0.01  
32          0.08  0.60  0.39  0.51  0.26  0.47  0.19  0.11  0.21  0.01  
33          0.08  0.60  0.39  0.51  0.26  0.47  0.19  0.11  0.21  0.01  
34          0.08  0.63  0.41  0.53  0.28  0.49  0.20  0.11  0.22  0.01  
35          0.08  0.63  0.41  0.53  0.28  0.49  0.20  0.11  0.22  0.01  
36          0.08  0.63  0.41  0.53  0.28  0.49  0.20  0.11  0.22  0.01  
37          0.08  0.63  0.41  0.53  0.28  0.49  0.20  0.11  0.22  0.01  
38          0.08  0.63  0.41  0.53  0.28  0.49  0.20  0.11  0.22  0.01  
39          0.08  0.63  0.41  0.53  0.28  0.49  0.20  0.11  0.22  0.01  
40          0.08  0.63  0.41  0.53  0.28  0.49  0.20  0.11  0.22  0.01  
41          0.08  0.63  0.41  0.53  0.28  0.49  0.20  0.11  0.22  0.01  
42          0.08  0.63  0.41  0.53  0.28  0.49  0.20  0.11  0.22  0.01  
43          0.08  0.63  0.41  0.53  0.28  0.49  0.20  0.11  0.22  0.01  
44          0.08  0.63  0.41  0.53  0.28  0.49  0.20  0.11  0.22  0.01  
45          0.08  0.63  0.41  0.53  0.28  0.49  0.20  0.11  0.22  0.01  

[*,*,F3 ]:  K1    K2    K3    K4    K5    K6    K7    K8    K9    K10   :=
1           0.02  0.99  0.62  0.85  0.47  0.64  0.23  0.06  0.26  0.11  
2           0.02  0.99  0.62  0.85  0.47  0.64  0.23  0.06  0.26  0.11  
3           0.02  0.99  0.62  0.85  0.47  0.64  0.23  0.06  0.26  0.11  
4           0.02  0.99  0.62  0.85  0.47  0.64  0.23  0.06  0.26  0.11  
5           0.02  0.99  0.62  0.85  0.47  0.64  0.23  0.06  0.26  0.11  
6           0.02  0.99  0.62  0.85  0.47  0.64  0.23  0.06  0.26  0.11  
7           0.02  0.99  0.62  0.85  0.47  0.64  0.23  0.06  0.26  0.11  
8           0.02  0.99  0.62  0.85  0.47  0.64  0.23  0.06  0.26  0.11  
9           0.02  0.99  0.62  0.85  0.47  0.64  0.23  0.06  0.26  0.11  
10          0.02  0.99  0.62  0.85  0.47  0.64  0.23  0.06  0.26  0.11  
11          0.02  0.99  0.62  0.85  0.47  0.64  0.23  0.06  0.26  0.11  
12          0.02  0.99  0.62  0.85  0.47  0.64  0.23  0.06  0.26  0.11  
13          0.02  0.99  0.62  0.85  0.47  0.64  0.23  0.06  0.26  0.11  
14          0.02  0.99  0.62  0.85  0.47  0.64  0.23  0.06  0.26  0.11  
15          0.02  0.99  0.62  0.85  0.47  0.64  0.23  0.06  0.26  0.11  
16          0.02  0.99  0.62  0.85  0.47  0.64  0.23  0.06  0.26  0.11  
17          0.02  0.99  0.62  0.85  0.47  0.64  0.23  0.06  0.26  0.11  
18          0.02  0.99  0.62  0.85  0.47  0.64  0.23  0.06  0.26  0.11  
19          0.02  0.99  0.62  0.85  0.47  0.64  0.23  0.06  0.26  0.11  
20          0.02  0.99  0.62  0.85  0.47  0.64  0.23  0.06  0.26  0.11  
21          0.02  0.99  0.62  0.85  0.47  0.64  0.23  0.06  0.26  0.11  
22          0.02  0.99  0.62  0.85  0.47  0.64  0.23  0.06  0.26  0.11  
23          0.02  0.99  0.62  0.85  0.47  0.64  0.23  0.06  0.26  0.11  
24          0.02  0.99  0.62  0.85  0.47  0.64  0.23  0.06  0.26  0.11  
25          0.02  0.94  0.59  0.80  0.44  0.61  0.22  0.05  0.25  0.10  
26          0.02  0.94  0.59  0.80  0.44  0.61  0.22  0.05  0.25  0.10  
27          0.02  0.94  0.59  0.80  0.44  0.61  0.22  0.05  0.25  0.10  
28          0.02  0.94  0.59  0.80  0.44  0.61  0.22  0.05  0.25  0.10  
29          0.02  0.94  0.59  0.80  0.44  0.61  0.22  0.05  0.25  0.10  
30          0.02  0.94  0.59  0.80  0.44  0.61  0.22  0.05  0.25  0.10  
31          0.02  0.94  0.59  0.80  0.44  0.61  0.22  0.05  0.25  0.10  
32          0.02  0.94  0.59  0.80  0.44  0.61  0.22  0.05  0.25  0.10  
33          0.02  0.94  0.59  0.80  0.44  0.61  0.22  0.05  0.25  0.10  
34          0.02  0.99  0.62  0.85  0.47  0.64  0.23  0.06  0.26  0.11  
35          0.02  0.99  0.62  0.85  0.47  0.64  0.23  0.06  0.26  0.11  
36          0.02  0.99  0.62  0.85  0.47  0.64  0.23  0.06  0.26  0.11  
37          0.02  0.99  0.62  0.85  0.47  0.64  0.23  0.06  0.26  0.11  
38          0.02  0.99  0.62  0.85  0.47  0.64  0.23  0.06  0.26  0.11  
39          0.02  0.99  0.62  0.85  0.47  0.64  0.23  0.06  0.26  0.11  
40          0.02  0.99  0.62  0.85  0.47  0.64  0.23  0.06  0.26  0.11  
41          0.02  0.99  0.62  0.85  0.47  0.64  0.23  0.06  0.26  0.11  
42          0.02  0.99  0.62  0.85  0.47  0.64  0.23  0.06  0.26  0.11  
43          0.02  0.99  0.62  0.85  0.47  0.64  0.23  0.06  0.26  0.11  
44          0.02  0.99  0.62  0.85  0.47  0.64  0.23  0.06  0.26  0.11  
45          0.02  0.99  0.62  0.85  0.47  0.64  0.23  0.06  0.26  0.11  
; # downloads resource k can do at front f in time t if starting or ending flight

param W: 
	F1        F2        F3        :=
1	234.42    234.42    234.42    
2	937.67    937.67    937.67    
3	937.67    937.67    937.67    
4	937.67    937.67    937.67    
5	937.67    937.67    937.67    
6	937.67    937.67    937.67    
7	937.67    937.67    937.67    
8	937.67    937.67    937.67    
9	937.67    937.67    937.67    
10	937.67    937.67    937.67    
11	937.67    937.67    937.67    
12	937.67    937.67    937.67    
13	937.67    937.67    937.67    
14	937.67    937.67    937.67    
15	937.67    937.67    937.67    
16	937.67    937.67    937.67    
17	937.67    937.67    937.67    
18	937.67    937.67    937.67    
19	416.74    416.74    416.74    
20	416.74    416.74    416.74    
21	416.74    416.74    416.74    
22	416.74    416.74    416.74    
23	416.74    416.74    416.74    
24	416.74    416.74    416.74    
25	416.74    416.74    416.74    
26	416.74    416.74    416.74    
27	416.74    416.74    416.74    
28	416.74    416.74    416.74    
29	416.74    416.74    416.74    
30	416.74    416.74    416.74    
31	416.74    416.74    416.74    
32	416.74    416.74    416.74    
33	416.74    416.74    416.74    
34	416.74    416.74    416.74    
35	416.74    416.74    416.74    
36	416.74    416.74    416.74    
37	416.74    416.74    416.74    
38	416.74    416.74    416.74    
39	416.74    416.74    416.74    
40	416.74    416.74    416.74    
41	416.74    416.74    416.74    
42	416.74    416.74    416.74    
43	416.74    416.74    416.74    
44	416.74    416.74    416.74    
45	104.19    104.19    104.19    
; # water needed at front f in time slot t

param M := 100000000; 

param a1:= 10000000;

param a2:= 100;

param a3:= 0.0001;
